SLURM_JOB_ID: 55294173
SLURM_JOB_USER: vsc34888
SLURM_JOB_ACCOUNT: lp_elect_gen_modeling
SLURM_JOB_NAME: 9n_full_MILP_DC
SLURM_CLUSTER_NAME: genius
SLURM_JOB_PARTITION: batch
SLURM_NNODES: 1
SLURM_NODELIST: r22i27n24
SLURM_JOB_CPUS_PER_NODE: 36
Date: Wed Oct 11 14:56:33 CEST 2023
Walltime: 01-00:00:00
========================================================================
Activation OK
Starting runs
/lustre1/scratch/348/vsc34888/JointResearch/05.Models/06.Benchmarking/A.The_full_year_MILP/oSN_Main_DCOPF.py:617: FutureWarning: The default dtype for empty Series will be 'object' instead of 'float64' in a future version. Specify a dtype explicitly to silence this warning.
  pLinearOperCost.update (pd.Series([0 for gg in model.gg if pLinearOperCost [gg] < pEpsilon], index=[gg for gg in model.gg if pLinearOperCost [gg] < pEpsilon]))
/lustre1/scratch/348/vsc34888/JointResearch/05.Models/06.Benchmarking/A.The_full_year_MILP/oSN_Main_DCOPF.py:618: FutureWarning: The default dtype for empty Series will be 'object' instead of 'float64' in a future version. Specify a dtype explicitly to silence this warning.
  pLinearVarCost.update  (pd.Series([0 for gg in model.gg if pLinearVarCost  [gg] < pEpsilon], index=[gg for gg in model.gg if pLinearVarCost  [gg] < pEpsilon]))

 #### Academic research license - for non-commercial use only #### 

9n
/lustre1/scratch/348/vsc34888/JointResearch/05.Models/06.Benchmarking/A.The_full_year_MILP
gurobi
['oSN_Main_DCOPF.py', '--case', '9n']
Namespace(case='9n', dir='/lustre1/scratch/348/vsc34888/JointResearch/05.Models/06.Benchmarking/A.The_full_year_MILP', solver='gurobi')
Namespace(case='9n', dir='/lustre1/scratch/348/vsc34888/JointResearch/05.Models/06.Benchmarking/A.The_full_year_MILP', solver='gurobi')
Reading    input data                 ...  0 s
Setting up input data                 ...  7 s
Generating objective function         ...  7 s
Generating operation & investment     ...  0 s
Generating balance                    ...  11 s
Generating storage operation          ...  0 s
Generating generation commitment      ...  10 s
Generating generation capacity        ...  1 s
Generating network    capacity        ...  14 s
Generating network    constraints     ...  38 s
Econometric analysis  constraints     ...  0 s
Set parameter Username
Set parameter TokenServer to value "SET-S-ME-LM3.luna.kuleuven.be"
Read LP format model from file /tmp/tmp7pn8lf85.pyomo.lp
Reading time = 6.79 seconds
x1: 2407680 rows, 1249894 columns, 7292341 nonzeros
Set parameter QCPDual to value 1
Set parameter LogFile to value "/lustre1/scratch/348/vsc34888/JointResearch/05.Models/06.Benchmarking/A.The_full_year_MILP/9n/openStarNet_9n.log"
Set parameter Method to value 2
Set parameter MIPFocus to value 1
Set parameter Presolve to value 2
Set parameter RINS to value 100
Set parameter MIPGap to value 0.01
Set parameter Threads to value 36
Set parameter TimeLimit to value 604800
Set parameter IterationLimit to value 760000000
Gurobi Optimizer version 9.5.0 build v9.5.0rc5 (linux64)
Thread count: 36 physical cores, 36 logical processors, using up to 36 threads
Optimize a model with 2407680 rows, 1249894 columns and 7292341 nonzeros
Model fingerprint: 0x94a2678d
Variable types: 1249858 continuous, 36 integer (36 binary)
Coefficient statistics:
  Matrix range     [7e-04, 2e+03]
  Objective range  [1e+00, 1e+00]
  Bounds range     [4e-04, 2e+00]
  RHS range        [4e-04, 1e+00]
Presolve removed 861408 rows and 415267 columns (presolve time = 5s) ...
Presolve removed 861408 rows and 415267 columns (presolve time = 10s) ...
Presolve removed 861408 rows and 415267 columns (presolve time = 15s) ...
Presolve removed 861408 rows and 415267 columns
Presolve time: 16.32s
Presolved: 1546272 rows, 834627 columns, 5473407 nonzeros
Variable types: 834591 continuous, 36 integer (36 binary)
Root relaxation presolved: 1546272 rows, 834627 columns, 5473407 nonzeros

Root barrier log...

Ordering time: 0.48s

Barrier statistics:
 Dense cols : 36
 AA' NZ     : 2.081e+07
 Factor NZ  : 4.702e+07 (roughly 1.3 GB of memory)
 Factor Ops : 2.386e+09 (less than 1 second per iteration)
 Threads    : 35

                  Objective                Residual
Iter       Primal          Dual         Primal    Dual     Compl     Time
   0   3.92244967e+05 -1.99805199e+07  6.62e+00 5.96e-01  2.05e+01    33s
   1   6.05531166e+04 -5.88923687e+06  7.75e-01 1.07e-08  2.74e+00    34s
   2   1.34112631e+04 -9.30049168e+05  9.43e-03 5.58e-09  3.14e-01    35s
   3   3.19777772e+03 -2.20105542e+04  1.05e-05 9.66e-11  8.32e-03    36s
   4   9.19007020e+02 -3.60507698e+03  6.78e-09 1.55e-11  1.49e-03    37s
   5   6.36131670e+02 -1.65818997e+03  3.08e-09 7.95e-12  7.57e-04    38s
   6   4.54476994e+02 -9.82481675e+02  1.75e-09 3.74e-12  4.74e-04    39s
   7   3.14674533e+02 -5.07322657e+02  9.21e-10 2.66e-12  2.71e-04    40s
   8   1.80630692e+02 -1.89127695e+02  2.89e-10 1.91e-12  1.22e-04    41s
   9   1.54639879e+02 -4.23222170e+01  1.98e-10 1.02e-12  6.50e-05    42s
  10   1.44418513e+02 -2.15814160e+01  1.66e-10 1.26e-12  5.48e-05    43s
  11   1.23844144e+02  4.09556609e+00  9.46e-11 1.22e-12  3.95e-05    44s
  12   1.11482869e+02  4.08191177e+01  5.68e-11 8.24e-13  2.33e-05    45s
  13   1.05386262e+02  5.17311878e+01  4.56e-11 1.48e-12  1.77e-05    46s
  14   1.02693665e+02  6.07818555e+01  4.43e-11 1.80e-12  1.38e-05    47s
  15   1.01191142e+02  6.38224491e+01  3.80e-11 9.09e-13  1.23e-05    48s
  16   1.00655781e+02  6.49991230e+01  3.56e-11 9.59e-13  1.18e-05    49s
  17   9.93163309e+01  7.01222623e+01  3.00e-11 4.05e-13  9.63e-06    50s
  18   9.85085046e+01  7.31465027e+01  2.65e-11 7.39e-13  8.37e-06    51s
  19   9.71936946e+01  7.45975382e+01  2.11e-11 1.14e-12  7.45e-06    53s
  20   9.68605760e+01  7.54229566e+01  1.97e-11 1.11e-12  7.07e-06    54s
  21   9.60722425e+01  7.89461718e+01  2.58e-11 6.68e-13  5.65e-06    55s
  22   9.53970825e+01  7.99022351e+01  2.81e-11 7.60e-13  5.11e-06    56s
  23   9.50808857e+01  8.09096084e+01  2.78e-11 5.97e-13  4.67e-06    57s
  24   9.45979949e+01  8.28456141e+01  3.61e-11 7.32e-13  3.88e-06    58s
  25   9.41978074e+01  8.35033469e+01  5.87e-11 6.39e-13  3.53e-06    60s
  26   9.40717832e+01  8.38647876e+01  6.80e-11 7.89e-13  3.37e-06    61s
  27   9.38588795e+01  8.55935909e+01  7.69e-11 4.05e-13  2.73e-06    62s
  28   9.35396855e+01  8.60583662e+01  7.00e-11 3.69e-13  2.47e-06    63s
  29   9.33810081e+01  8.64357907e+01  6.08e-11 2.27e-13  2.29e-06    64s
  30   9.31913094e+01  8.69313107e+01  5.45e-11 2.77e-13  2.06e-06    65s
  31   9.30518586e+01  8.72808580e+01  4.87e-11 7.25e-13  1.90e-06    66s
  32   9.30152570e+01  8.74448943e+01  8.06e-11 7.18e-13  1.84e-06    67s
  33   9.28886285e+01  8.77807314e+01  6.42e-11 4.97e-13  1.68e-06    68s
  34   9.27750022e+01  8.81883331e+01  8.19e-11 2.13e-13  1.51e-06    70s
  35   9.26888011e+01  8.84275489e+01  7.36e-11 5.97e-13  1.41e-06    71s
  36   9.26016494e+01  8.87141315e+01  2.09e-10 9.02e-13  1.28e-06    72s
  37   9.24966777e+01  8.89305375e+01  1.23e-10 6.32e-13  1.18e-06    73s
  38   9.24515987e+01  8.91079243e+01  1.08e-10 3.84e-13  1.10e-06    74s
  39   9.24257546e+01  8.92202189e+01  1.04e-10 2.34e-13  1.06e-06    75s
  40   9.23722749e+01  8.94208430e+01  9.99e-11 5.76e-13  9.73e-07    76s
  41   9.23237620e+01  8.95503423e+01  1.17e-10 3.55e-13  9.15e-07    78s
  42   9.23059260e+01  8.96603421e+01  1.19e-10 5.19e-13  8.73e-07    79s
  43   9.22587174e+01  8.98936437e+01  1.13e-10 4.55e-13  7.80e-07    80s
  44   9.22227204e+01  9.00126520e+01  1.36e-10 3.84e-13  7.29e-07    81s
  45   9.21723300e+01  9.04321024e+01  7.12e-10 2.91e-13  5.74e-07    82s
  46   9.21431827e+01  9.05696822e+01  6.23e-10 2.38e-13  5.19e-07    84s
  47   9.21011678e+01  9.07192458e+01  5.24e-10 3.45e-13  4.56e-07    85s
  48   9.20342045e+01  9.11934924e+01  3.71e-10 9.31e-13  2.77e-07    86s
  49   9.20171977e+01  9.12354687e+01  3.36e-10 1.21e-12  2.58e-07    87s
  50   9.20030674e+01  9.13416781e+01  3.03e-10 1.78e-12  2.18e-07    89s
  51   9.19902275e+01  9.14356752e+01  8.06e-10 3.20e-13  1.83e-07    90s
  52   9.19795522e+01  9.14990472e+01  1.28e-09 6.32e-13  1.58e-07    91s
  53   9.19581826e+01  9.16903701e+01  1.96e-09 5.31e-12  8.83e-08    93s
  54   9.19457339e+01  9.17362439e+01  1.63e-09 4.13e-12  6.91e-08    94s
  55   9.19412010e+01  9.17441042e+01  1.45e-09 3.81e-12  6.50e-08    96s
  56   9.19371994e+01  9.17499786e+01  1.28e-09 4.03e-12  6.18e-08    97s
  57   9.19332935e+01  9.17868282e+01  1.13e-09 2.71e-12  4.83e-08    99s
  58   9.19267687e+01  9.17963429e+01  8.71e-10 2.56e-12  4.30e-08   101s
  59   9.19206450e+01  9.18673570e+01  4.56e-10 4.26e-13  1.76e-08   102s
  60   9.19142017e+01  9.18853743e+01  3.32e-10 5.33e-13  9.51e-09   104s
  61   9.19127577e+01  9.18902851e+01  2.79e-10 3.69e-13  7.41e-09   105s
  62   9.19119979e+01  9.18908570e+01  2.51e-10 2.17e-13  6.97e-09   106s
  63   9.19077637e+01  9.19026324e+01  8.99e-11 3.20e-13  1.69e-09   107s
  64   9.19053879e+01  9.19051378e+01  1.46e-11 4.62e-13  8.25e-11   108s
  65   9.19052002e+01  9.19051973e+01  9.64e-10 1.12e-11  9.72e-13   109s
  66   9.19051987e+01  9.19051983e+01  2.08e-08 9.73e-12  1.23e-13   110s

Barrier solved model in 66 iterations and 109.78 seconds (77.90 work units)
Optimal objective 9.19051987e+01


Root crossover log...

  364168 DPushes remaining with DInf 0.0000000e+00               111s
       0 DPushes remaining with DInf 0.0000000e+00               112s

   61586 PPushes remaining with PInf 0.0000000e+00               112s
       4 PPushes remaining with PInf 0.0000000e+00               115s
       0 PPushes remaining with PInf 0.0000000e+00               116s

  Push phase complete: Pinf 0.0000000e+00, Dinf 1.3833201e-11    116s


Root simplex log...

Iteration    Objective       Primal Inf.    Dual Inf.      Time
   70039    9.1905198e+01   0.000000e+00   0.000000e+00    117s
   70039    9.1905198e+01   0.000000e+00   0.000000e+00    118s

Root relaxation: objective 9.190520e+01, 70039 iterations, 93.00 seconds (69.91 work units)

    Nodes    |    Current Node    |     Objective Bounds      |     Work
 Expl Unexpl |  Obj  Depth IntInf | Incumbent    BestBd   Gap | It/Node Time

     0     0   91.90520    0    6          -   91.90520      -     -  118s
H    0     0                     922.9305402   91.90520  90.0%     -  129s
     0     0   99.36201    0    1  922.93054   99.36201  89.2%     -  329s
H    0     0                     101.6172119   99.36201  2.22%     -  340s
     0     0   99.95832    0    3  101.61721   99.95832  1.63%     -  458s
     0     0   99.95832    0    3  101.61721   99.95832  1.63%     -  477s
     0     0   99.95832    0    1  101.61721   99.95832  1.63%     -  554s
H    0     0                     100.1621254   99.95832  0.20%     -  559s

Cutting planes:
  Gomory: 1
  MIR: 7146
  Relax-and-lift: 55

Explored 1 nodes (241822 simplex iterations) in 559.74 seconds (562.73 work units)
Thread count was 36 (of 36 available processors)

Solution count 4: 100.162 101.617 922.931 933.956 

Optimal solution found (tolerance 1.00e-02)
Best objective 1.001621254218e+02, best bound 9.995831848988e+01, gap 0.2035%
Termination condition:  optimal
# ==========================================================
# = Solver Results                                         =
# ==========================================================
# ----------------------------------------------------------
#   Problem Information
# ----------------------------------------------------------
Problem: 
- Name: x1
  Lower bound: 99.9583184898776
  Upper bound: 100.16212542178553
  Number of objectives: 1
  Number of constraints: 2407680
  Number of variables: 1249894
  Number of binary variables: 36
  Number of integer variables: 36
  Number of continuous variables: 1249858
  Number of nonzeros: 7292341
  Sense: minimize
# ----------------------------------------------------------
#   Solver Information
# ----------------------------------------------------------
Solver: 
- Status: ok
  Return code: 0
  Message: Model was solved to optimality (subject to tolerances), and an optimal solution is available.
  Termination condition: optimal
  Termination message: Model was solved to optimality (subject to tolerances), and an optimal solution is available.
  Wall time: 559.778932094574
  Error rc: 0
  Time: 574.2398052215576
# ----------------------------------------------------------
#   Solution Information
# ----------------------------------------------------------
Solution: 
- number of solutions: 0
  number of solutions displayed: 0
# ============================================================================= #
# ============================================================================= #
fixing: vNetworkInvest[2030,Node_4,Node_6,cac1]
fixing: vNetworkInvest[2030,Node_4,Node_5,cac3]
fixing: vNetworkInvest[2030,Node_4,Node_9,cac2]
fixing: vNetworkInvest[2030,Node_3,Node_6,cac2]
fixing: vNetworkInvest[2030,Node_4,Node_6,cac3]
fixing: vNetworkInvest[2030,Node_6,Node_8,cac1]
fixing: vNetworkInvest[2030,Node_3,Node_4,cac1]
fixing: vNetworkInvest[2030,Node_4,Node_5,cac2]
fixing: vNetworkInvest[2030,Node_1,Node_6,cac1]
fixing: vNetworkInvest[2030,Node_6,Node_8,cac3]
fixing: vNetworkInvest[2030,Node_3,Node_4,cac3]
fixing: vNetworkInvest[2030,Node_7,Node_8,cac1]
fixing: vNetworkInvest[2030,Node_1,Node_6,cac3]
fixing: vNetworkInvest[2030,Node_4,Node_6,cac2]
fixing: vNetworkInvest[2030,Node_2,Node_3,cac1]
fixing: vNetworkInvest[2030,Node_6,Node_7,cac1]
fixing: vNetworkInvest[2030,Node_2,Node_6,cac1]
fixing: vNetworkInvest[2030,Node_7,Node_8,cac3]
fixing: vNetworkInvest[2030,Node_8,Node_9,cac1]
fixing: vNetworkInvest[2030,Node_6,Node_8,cac2]
fixing: vNetworkInvest[2030,Node_2,Node_3,cac3]
fixing: vNetworkInvest[2030,Node_1,Node_6,cac2]
fixing: vNetworkInvest[2030,Node_2,Node_6,cac3]
fixing: vNetworkInvest[2030,Node_3,Node_4,cac2]
fixing: vNetworkInvest[2030,Node_6,Node_7,cac3]
fixing: vNetworkInvest[2030,Node_4,Node_9,cac1]
fixing: vNetworkInvest[2030,Node_8,Node_9,cac3]
fixing: vNetworkInvest[2030,Node_3,Node_6,cac1]
fixing: vNetworkInvest[2030,Node_7,Node_8,cac2]
fixing: vNetworkInvest[2030,Node_2,Node_3,cac2]
fixing: vNetworkInvest[2030,Node_3,Node_6,cac3]
fixing: vNetworkInvest[2030,Node_4,Node_9,cac3]
fixing: vNetworkInvest[2030,Node_6,Node_7,cac2]
fixing: vNetworkInvest[2030,Node_2,Node_6,cac2]
fixing: vNetworkInvest[2030,Node_4,Node_5,cac1]
fixing: vNetworkInvest[2030,Node_8,Node_9,cac2]
Number of fixed variables:  36
# ============================================================================= #
# ============================================================================= #
WARNING: Implicitly replacing the Component attribute dual (type=<class
'pyomo.core.base.suffix.Suffix'>) on block 'openStarNet - Open Version of the
StartNetLite Model (Long Term Transmission Expansion Planning) - Version 1.0.0
- January 16, 2023' with a new Component (type=<class
'pyomo.core.base.suffix.Suffix'>). This is usually indicative of a modelling
error. To avoid this warning, use block.del_component() and
block.add_component().
WARNING: Implicitly replacing the Component attribute rc (type=<class
'pyomo.core.base.suffix.Suffix'>) on block 'openStarNet - Open Version of the
StartNetLite Model (Long Term Transmission Expansion Planning) - Version 1.0.0
- January 16, 2023' with a new Component (type=<class
'pyomo.core.base.suffix.Suffix'>). This is usually indicative of a modelling
error. To avoid this warning, use block.del_component() and
block.add_component().
# ==========================================================
# = Solver Results                                         =
# ==========================================================
# ----------------------------------------------------------
#   Problem Information
# ----------------------------------------------------------
Problem: 
- Name: x1
  Lower bound: 100.16212542178653
  Upper bound: 100.16212542178653
  Number of objectives: 1
  Number of constraints: 2407680
  Number of variables: 1249858
  Number of binary variables: 0
  Number of integer variables: 0
  Number of continuous variables: 1249858
  Number of nonzeros: 6034321
  Sense: minimize
# ----------------------------------------------------------
#   Solver Information
# ----------------------------------------------------------
Solver: 
- Status: ok
  Return code: 0
  Message: Model was solved to optimality (subject to tolerances), and an optimal solution is available.
  Termination condition: optimal
  Termination message: Model was solved to optimality (subject to tolerances), and an optimal solution is available.
  Wall time: 12.323793888092041
  Error rc: 0
  Time: 33.48094654083252
# ----------------------------------------------------------
#   Solution Information
# ----------------------------------------------------------
Solution: 
- number of solutions: 0
  number of solutions displayed: 0
Solving                               ...  748 s
Objective function value                   100.16 M€
Objective function value                   100.16212542178653
Writing         cost summary results  ...  0 s
Writing           investment results  ...  0 s
Writing       energy balance results  ...  20 s
Writing    network operation results  ...  4 s
Writing generation operation results  ...  6 s
Writing        ESS operation results  ...  0 s
Writing             economic results  ...  1 s

 #### Academic research license - for non-commercial use only #### 

Elapsed time: 883 seconds
